Version identifier: 12.10.0.0 | 2019-11-26 | 843d4de
CPXPARAM_WorkMem                                 28672
Tried aggregator 2 times.
MIP Presolve eliminated 6 rows and 0 columns.
MIP Presolve added 12 rows and 0 columns.
Aggregator did 30 substitutions.
Reduced MIP has 48 rows, 50 columns, and 200 nonzeros.
Reduced MIP has 50 binaries, 0 generals, 0 SOSs, and 0 indicators.
Presolve time = 0,00 sec. (0,37 ticks)
Found incumbent of value 33,000000 after 0,00 sec. (0,43 ticks)
Probing time = 0,00 sec. (0,13 ticks)
Tried aggregator 1 time.
Detecting symmetries...
Reduced MIP has 48 rows, 50 columns, and 200 nonzeros.
Reduced MIP has 50 binaries, 0 generals, 0 SOSs, and 0 indicators.
Presolve time = 0,00 sec. (0,16 ticks)
Probing time = 0,00 sec. (0,13 ticks)
Clique table members: 200.
MIP emphasis: balance optimality and feasibility.
MIP search method: dynamic search.
Parallel mode: deterministic, using up to 16 threads.
Root relaxation solution time = 0,00 sec. (0,07 ticks)

        Nodes                                         Cuts/
   Node  Left     Objective  IInf  Best Integer    Best Bound    ItCnt     Gap

*     0+    0                           33,0000        0,0000           100,00%
*     0+    0                           32,0000        0,0000           100,00%
*     0+    0                           31,0000        0,0000           100,00%
*     0+    0                           28,0000        0,0000           100,00%
      0     0       20,0000    31       28,0000       20,0000       10   28,57%
      0     0       20,4889    31       28,0000     Cuts: 112       22   26,83%
*     0+    0                           27,0000       20,4889            24,12%
      0     0       21,1166    31       27,0000      Cuts: 14       38   21,79%
      0     0       21,3699    31       27,0000      Cuts: 82       48   20,85%
      0     0       21,3795    31       27,0000   ZeroHalf: 3       53   20,82%
      0     0       21,3801    31       27,0000   MIRcuts: 17       54   20,81%
Detecting symmetries...
      0     0        cutoff             27,0000       27,0000       54    0,00%
Elapsed time = 0,02 sec. (7,14 ticks, tree = 0,01 MB, solutions = 5)

Clique cuts applied:  21
Cover cuts applied:  18
Mixed integer rounding cuts applied:  12
Zero-half cuts applied:  6
Gomory fractional cuts applied:  2

Root node processing (before b&c):
  Real time             =    0,02 sec. (7,15 ticks)
Parallel b&c, 16 threads:
  Real time             =    0,00 sec. (0,00 ticks)
  Sync time (average)   =    0,00 sec.
  Wait time (average)   =    0,00 sec.
                          ------------
Total (root+branch&cut) =    0,02 sec. (7,15 ticks)
